\ This file has been generated by DOcplex
\ ENCODING=ISO-8859-1
\Problem name: Qrandom16842_12_2.lp

Minimize
 obj: - 850 x0 - 435 x1 - 1288 x2 + 419 x3 - 427 x4 + 10 x5 + 5 x6 + 3 x7 - 6 x8
      - 428 x9 + 3 x10 + 848 x11 + [ 1704 x0^2 - 1704 x0*x1 + 3422 x0*x2
      - 2 x0*x4 + 6 x0*x6 + 3408 x0*x9 - 8 x0*x10 - 3396 x0*x11 + 2130 x1^2
      - 1688 x1*x3 + 1720 x1*x4 - 6 x1*x5 - 6 x1*x6 - 3408 x1*x9 + 1686 x1*x11
      + 2130 x2^2 - 860 x2*x3 + 852 x2*x4 - 2 x2*x6 + 4 x2*x8 + 2556 x2*x9
      - 3428 x2*x11 + 426 x3^2 - 852 x3*x4 + 14 x3*x5 - 20 x3*x7 + 852 x3*x9
      + 14 x3*x10 + 426 x4^2 - 4 x4*x8 - 858 x4*x9 + 16 x4*x10 - 2 x5*x6
      - 4 x5*x7 + 6 x5*x10 + 18 x6*x7 - 4 x7*x9 + 2 x7*x11 - 20 x8*x9
      - 14 x8*x10 - 18 x8*x11 + 2130 x9^2 - 3408 x9*x11 + 1704 x11^2 ]/2 + 426
Subject To

Bounds
 0 <= x0 <= 1
 0 <= x1 <= 1
 0 <= x2 <= 1
 0 <= x3 <= 1
 0 <= x4 <= 1
 0 <= x5 <= 1
 0 <= x6 <= 1
 0 <= x7 <= 1
 0 <= x8 <= 1
 0 <= x9 <= 1
 0 <= x10 <= 1
 0 <= x11 <= 1

Binaries
 x0 x1 x2 x3 x4 x5 x6 x7 x8 x9 x10 x11
End
